nN = 4;
nR = 17;
nH = 1;

a = [[8, 16, 21, 12, 23, 22, 20, 22, 14, 14, 8, 11, 10, 13, 7, 9, 8], [19, 20, 17, 15, 19, 5, 20, 6, 16, 20, 16, 5, 24, 13, 21, 8, 24], [22, 11, 21, 18, 19, 22, 6, 14, 7, 24, 19, 17, 13, 9, 21, 9, 15], [7, 12, 6, 15, 11, 23, 17, 22, 15, 22, 12, 6, 6, 21, 10, 25, 20]];
c = [[[0, 0, 0, 0, 0, 0, 0, 0, 0, 0, 0, 0, 0, 0, 0, 0, 0], [46, 33, 38, 46, 40, 33, 34, 30, 44, 39, 46, 47, 34, 50, 30, 31, 34], [50, 36, 41, 38, 43, 48, 44, 37, 49, 48, 35, 34, 43, 32, 47, 39, 40], [38, 31, 43, 41, 39, 40, 35, 35, 41, 46, 45, 33, 46, 41, 44, 45, 40]], [[0, 0, 0, 0, 0, 0, 0, 0, 0, 0, 0, 0, 0, 0, 0, 0, 0], [0, 0, 0, 0, 0, 0, 0, 0, 0, 0, 0, 0, 0, 0, 0, 0, 0], [49, 42, 33, 46, 43, 43, 35, 31, 31, 40, 39, 46, 45, 43, 33, 40, 32], [38, 32, 37, 30, 46, 35, 36, 41, 37, 36, 41, 40, 39, 35, 34, 37, 43]], [[0, 0, 0, 0, 0, 0, 0, 0, 0, 0, 0, 0, 0, 0, 0, 0, 0], [0, 0, 0, 0, 0, 0, 0, 0, 0, 0, 0, 0, 0, 0, 0, 0, 0], [0, 0, 0, 0, 0, 0, 0, 0, 0, 0, 0, 0, 0, 0, 0, 0, 0], [37, 47, 50, 32, 48, 42, 42, 30, 41, 34, 39, 31, 38, 48, 37, 44, 44]], [[0, 0, 0, 0, 0, 0, 0, 0, 0, 0, 0, 0, 0, 0, 0, 0, 0], [0, 0, 0, 0, 0, 0, 0, 0, 0, 0, 0, 0, 0, 0, 0, 0, 0], [0, 0, 0, 0, 0, 0, 0, 0, 0, 0, 0, 0, 0, 0, 0, 0, 0], [0, 0, 0, 0, 0, 0, 0, 0, 0, 0, 0, 0, 0, 0, 0, 0, 0]]];
Q = [[58], [48], [50], [61]];

q = [[[24], [12], [10], [22], [23], [21], [12], [25], [15], [22], [16], [9], [8], [15], [25], [23], [6]], [[17], [17], [14], [5], [11], [15], [5], [6], [18], [10], [9], [23], [18], [6], [22], [16], [24]], [[8], [15], [16], [13], [20], [15], [6], [9], [21], [12], [19], [8], [20], [8], [14], [21], [22]], [[21], [12], [22], [22], [21], [22], [12], [14], [23], [7], [24], [12], [22], [21], [21], [17], [12]]];
p = [0.22, 0.35, 0.03, 0.28, 0.78, 0.34, 0.26, 0.36, 0.55, 0.23, 0.31, 0.7, 0.15, 0.27, 0.17, 0.55, 0.53];
